NAME: test1988
TYPE: TSP
DIMENSION: 11
EDGE_WEIGHT_TYPE: EUC_2D
NODE_COORD_SECTION
1 21.98068633308804 93.79206669138408
2 24.726314247998758 47.84354494747395
3 63.19209457682995 49.4262132179235
4 22.62623346552476 22.57307366140853
5 61.64887217956569 45.42436172242395
6 16.10220089607929 49.10135417539486
7 97.95545077242865 41.66825669541711
8 96.91483405222748 84.24125309196218
9 8.331919245636332 89.27722651219808
10 89.6183782630606 84.6368701835463
11 71.00476802707635 69.85134898906155
EOF
